# INITIALIZATION
units           real
dimension       3
boundary        p p p
atom_style      full

timestep	2.0

# force-field terms
pair_style hybrid/overlay lj/cut/tip4p/long 1 2 1 1 0.125 9.5 9 lj/cut 9
kspace_style pppm/tip4p 0.0001
bond_style harmonic
angle_style harmonic
dihedral_style hybrid harmonic charmm
improper_style hybrid harmonic cvff

read_data dsepLlen_all.data

# Groups
group oxy type 1
group hyd type 2
group water type 1 2
group graph type 3
group solute type 4 5
group watgraph union water graph

group Csolute type 4
group Hsolute type 5

# FORCE-FIELD PARAMETERS
# O=1, H=2 charges
set group oxy charge -1.0484
set group hyd charge 0.5242
set group Csolute charge -0.115
set group Hsolute charge 0.115

# non-bonded interactions
pair_coeff 2 2 lj/cut/tip4p/long 0.00000 0.00000
pair_coeff 1 2 lj/cut/tip4p/long 0.00000 0.00000
pair_coeff 1 1 lj/cut/tip4p/long 0.16275 3.16435

pair_coeff 3 3 lj/cut 0.07000 3.5500 # graphene
# J. Am. Chem. SOC. 1990, 112, 4168-4114 
# J. Am. Chem. Soc. 1996, 118, 11225-11236
pair_coeff 4 4 lj/cut 0.07000 3.5500 # Benzene Carbon 
pair_coeff 5 5 lj/cut 0.03000 2.4200 # Benzene Hydrogen

pair_coeff 1 3*4 lj/cut 0.107 3.35 # O-C
pair_coeff 2 3*4 lj/cut 0.046 2.93 # H-C
pair_coeff 1 5 lj/cut 0.07 2.767 # O-H
pair_coeff 2 5 lj/cut 0.03 2.4200 # H-H

pair_modify pair lj/cut mix geometric

# bonded interactions; need definition but tip4p/ew is a rigid model!
# bonded interactions; need definition but tip4p/ew is a rigid model!              
# the columns are #, k [ energy/Dist^2 = kCal/mole/A^2], r0 [dist = A]             
bond_coeff 1 450 0.9572  # TIP4P/ew water O-H                                      
bond_coeff 2 938 1.4000  # C-C bonds graphene Nature, 2001, 414, 188               
bond_coeff 3 469 1.4000 # CA-CA bond
bond_coeff 4 367 1.0800 # CA-HA bond
                                                                                   
# angle: #, k [ energy/rad^2 = kCal/mole/rad^2], theta0 [rad]                   
angle_coeff 1 55  104.52 # Tip4P/ew water H-O-H                                    
angle_coeff 2 126 120.00  # C-C-C angles graphene Nature, 2001, 414, 188           
angle_coeff 3 63 120.00  # CA-CA-CA
angle_coeff 4 35 120.00  # CA-CA-HA
                                                                                   
# dihedral: #, k [energy = kCal/mole], d (+1 or -1), n (integer >= 0)           
dihedral_coeff 1 harmonic 3.15 -1 2 # C-C-C-C graphene Nano Letters, 2009, 9, 3766          
dihedral_coeff 2 harmonic 3.15 1 2  # C-C-C-C graphene Nano Letters, 2009, 9, 3766          
dihedral_coeff 3 charmm 3.625 2 180 0.0 # CA-CA-CA-CA

# improper: #, k [energy = kCal/mole/rad^2], X0                                    
improper_coeff 1 harmonic 15.0 0.0 # C-C-C-C graphene Soft Matter, 2014, 10, 4067
# improper: #, k [energy = kCal/mole], d (+1 or -1), n (integer >= 0)  
improper_coeff 2 cvff 1.1 -1 2  # CA-CA-CA-HA for benzene from Bill

# SETTINGS
neighbor 2.0 bin
neigh_modify every 10 delay 0 check no

thermo          500
thermo_style    custom step time temp press pe ke etotal evdwl ecoul epair ebond eangle edihed vol density lx ly lz xlo xhi ylo yhi zlo zhi pxx pyy pzz pxy pxz pyz
#thermo_style    custom step temp pxx pyy pzz ebond eangle epair edihed etotal lx ly lz
#dump            11 all dcd 500 trajectory.dcd
dump            11 all xyz 500 traj_sep_len_iter.xyz
dump            1112 all custom 500 traj_sep_len_iter.velxyz id type vx vy vz
dump_modify     1112 sort id
restart         5000 restart.sep.len.iter.benzene

# RUNS
fix 1 all momentum 10 linear 1 1 1 angular
fix 2 all nve/limit 0.1
fix 3 all langevin 298 298 100.0 iter
run 10000
unfix 2
unfix 3

fix 11 water shake 0.0001 20 1000 b 1 a 1
fix 12 water nvt temp 298 298 100
fix 13 graph rigid/nvt molecule temp 298 298 100
run 5000
unfix 11
unfix 12
unfix 13

fix 20 water shake 0.0001 20 1000 b 1 a 1
fix 21 water npt temp 298 298 100 x 1 1 1000 dilate all
fix 22 graph rigid/nvt molecule temp 298 298 100
run 2500000
