# INITIALIZATION
units           real
dimension       3
boundary        p p p
atom_style      full

timestep	2.0

# force-field terms
pair_style hybrid/overlay lj/cut/tip4p/long 1 2 1 1 0.125 9.5 9 lj/cut 9
kspace_style pppm/tip4p 0.0001
bond_style harmonic
angle_style harmonic

read_data Llen_all.data

# Groups
group oxy type 1
group hyd type 2
group water type 1 2
group sodium type 4
group chlorine type 5
group ion union sodium chlorine
group hphil union water ion

# FORCE-FIELD PARAMETERS
# O=1, H=2 charges
# Sodium and chloride parameters taken from JPCB 2016, 120, 2460, Barbosa
set group oxy charge -1.0484
set group hyd charge 0.5242
set group sodium charge 0.885   # sodium ion charge, scaled w lambda
set group chlorine charge -0.885  # chlorine ion charge, scaled w lambda

# non-bonded interactions
pair_coeff 1 1 lj/cut/tip4p/long 0.16275 3.16435
pair_coeff 2 2 lj/cut/tip4p/long 0.00000 0.00000
pair_coeff 3 3 lj/cut 0.0 0.0
pair_coeff 4 4 lj/cut 0.03052 2.52   # Na-Na eps = 17.44 * 0.00175
pair_coeff 5 5 lj/cut 0.3367875 3.85 # Cl-Cl eps = 192.45 * 0.00175

pair_coeff 1 2 lj/cut/tip4p/long 0.00000 0.00000
pair_coeff 1 4 lj/cut 0.070 2.842175 # O-Na
pair_coeff 1 5 lj/cut 0.23  3.507175 # O-Cl

pair_coeff 2 4 lj/cut 0.0  0.    # H-Na
pair_coeff 2 5 lj/cut 0.0  0.    # H-Cl

pair_coeff 4 5 lj/cut 0.10  3.185  # Na-Cl

pair_coeff 1 3 lj/cut 0.0 0.0
pair_coeff 2 3 lj/cut 0.0 0.0
pair_coeff 3 4 lj/cut 0.0 0.0
pair_coeff 3 5 lj/cut 0.0 0.0

pair_modify pair lj/cut mix geometric

# bonded interactions; need definition but tip4p/ew is a rigid model!              
# the columns are #, k [ energy/Dist^2 = kCal/mole/A^2], r0 [dist = A]             
bond_coeff 1 450 0.9572  # TIP4P/ew water O-H                                      
                                                                                   
# angle: #, k [ energy/rad^2 = kCal/mole/rad^2], theta0 [rad]                   
angle_coeff 1 55  104.52 # Tip4P/ew water H-O-H                                    
                                                                                   
# SETTINGS
neighbor 2.0 bin
neigh_modify every 10 delay 0 check no

# OUTPUT
compute 1 water pe/atom pair kspace
compute 2 water reduce sum c_1
compute 5 hphil pe/atom pair kspace
compute 6 hphil reduce sum c_5

thermo          500
thermo_style    custom step time temp press pe ke etotal evdwl ecoul epair ebond eangle edihed vol density lx ly lz xlo xhi ylo yhi zlo zhi pxx pyy pzz pxy pxz pyz c_2 c_6
restart         5000 restart.sep.len.iter.ion

# RUNS
#min_style        sd
#minimize         0.000001 0.0000001 5000 20000

dump            11 all xyz 500 traj_sep_len_iter.xyz
dump            1112 all custom 500 traj_sep_len_iter.velxyz id type vx vy vz
dump_modify     1112 sort id

fix 1 all momentum 10 linear 1 1 1 angular
fix 2 hphil nve/limit 0.1
fix 3 all langevin 298 298 100.0 1
run 20000
unfix 2
unfix 3

fix 11 water shake 0.0001 20 1000 b 1 a 1
fix 12 hphil nvt temp 298 298 100
run 20000
unfix 11
unfix 12

fix 20 water shake 0.0001 20 1000 b 1 a 1
fix 21 hphil npt temp 298 298 100 x 1 1 1000
run 12500000
